<number of tasks>
70

<cycle time>
185

<task times>
1 17
2 66
3 54
4 52
5 6
6 88
7 21
8 128
9 68
10 70
11 85
12 21
13 134
14 135
15 94
16 90
17 50
18 143
19 19
20 54
21 50
22 40
23 73
24 12
25 152
26 42
27 45
28 74
29 26
30 11
31 31
32 50
33 102
34 46
35 35
36 40
37 2
38 1
39 3
40 13
41 16
42 25
43 21
44 43
45 30
46 83
47 89
48 56
49 59
50 43
51 11
52 26
53 44
54 121
55 38
56 68
57 22
58 7
59 16
60 32
61 25
62 27
63 156
64 28
65 15
66 26
67 18
68 72
69 23
70 27

<precedence relations>
1,2
1,41
1,69
1,70
2,3
3,4
3,68
4,6
4,7
5,6
5,24
5,30
6,8
7,8
8,12
9,10
10,11
11,12
12,13
12,14
13,23
14,23
15,16
16,17
16,18
17,19
18,19
19,20
19,22
19,57
20,21
21,23
22,23
23,25
23,31
23,33
24,25
25,26
25,27
25,28
25,29
26,35
27,35
28,35
29,35
30,31
31,32
32,35
33,34
34,35
35,36
35,44
35,48
35,51
35,53
35,56
35,60
35,61
35,62
36,37
37,38
38,39
39,40
40,42
41,42
42,43
43,50
44,45
45,46
46,47
47,50
48,49
49,50
51,52
52,54
53,54
54,55
57,58
58,59
59,60
61,65
62,63
63,64
64,65
64,66
64,67

<setup times forward>
1,9:20
1,10:7
1,11:11
1,15:20
1,16:7
1,17:5
1,18:1
1,19:1
1,20:8
1,21:8
1,22:18
1,57:1
1,58:18
1,59:11
1,69:20
1,70:11
2,9:20
2,10:7
2,11:11
2,15:20
2,16:7
2,17:5
2,18:1
2,19:1
2,20:8
2,21:8
2,22:18
2,57:1
2,58:18
2,59:11
2,69:20
2,70:11
3,4:8
3,9:20
3,10:7
3,11:11
3,15:20
3,16:7
3,17:5
3,18:1
3,19:1
3,20:8
3,21:8
3,22:18
3,57:1
3,58:18
3,59:11
3,68:11
3,69:20
3,70:11
4,5:8
4,9:28
4,10:15
4,11:3
4,15:28
4,16:15
4,17:13
4,18:7
4,19:7
4,22:10
4,24:8
4,30:8
4,41:8
4,57:7
4,58:10
4,59:19
4,68:3
4,69:28
4,70:19
5,4:8
5,6:8
5,7:8
5,9:20
5,10:7
5,11:11
5,15:20
5,16:7
5,17:5
5,18:1
5,19:1
5,20:8
5,21:8
5,22:18
5,57:1
5,58:18
5,59:11
5,68:11
5,69:20
5,70:11
6,8:13
6,9:28
6,10:15
6,11:3
6,15:28
6,16:15
6,17:13
6,18:7
6,19:7
6,22:10
6,24:8
6,30:8
6,41:8
6,57:7
6,58:10
6,59:19
6,68:3
6,69:28
6,70:19
7,5:8
7,8:13
7,9:28
7,10:15
7,11:3
7,15:28
7,16:15
7,17:13
7,18:7
7,19:7
7,22:10
7,24:8
7,30:8
7,41:8
7,57:7
7,58:10
7,59:19
7,68:3
7,69:28
7,70:19
8,9:15
8,10:2
8,11:16
8,12:16
8,15:15
8,16:2
8,18:6
8,19:6
8,20:13
8,21:13
8,22:23
8,24:5
8,30:5
8,41:5
8,57:6
8,58:23
8,59:6
8,68:16
8,69:15
8,70:6
9,1:20
9,2:20
9,3:20
9,4:28
9,5:20
9,6:28
9,7:28
9,8:15
9,10:13
9,16:13
9,17:15
9,18:21
9,19:21
9,20:28
9,21:28
9,22:38
9,24:20
9,30:20
9,41:20
9,57:21
9,58:38
9,59:9
9,68:31
9,70:9
10,1:7
10,2:7
10,3:7
10,4:15
10,5:7
10,6:15
10,7:15
10,8:2
10,11:18
10,15:13
10,17:2
10,18:8
10,19:8
10,20:15
10,21:15
10,22:25
10,24:7
10,30:7
10,41:7
10,57:8
10,58:25
10,59:4
10,68:18
10,69:13
10,70:4
11,1:11
11,2:11
11,3:11
11,4:3
11,5:11
11,6:3
11,7:3
11,8:16
11,15:31
11,16:18
11,17:16
11,18:10
11,19:10
11,20:3
11,21:3
11,22:7
11,24:11
11,30:11
11,41:11
11,57:10
11,58:7
11,59:22
11,69:31
11,70:22
12,13:22
12,14:7
12,15:31
12,16:18
12,17:16
12,18:10
12,19:10
12,20:3
12,21:3
12,22:7
12,24:11
12,30:11
12,41:11
12,57:10
12,58:7
12,59:22
12,69:31
12,70:22
13,14:29
13,15:9
13,16:4
13,17:6
13,18:12
13,19:12
13,20:19
13,21:19
13,22:29
13,23:19
13,24:11
13,30:11
13,41:11
13,57:12
13,58:29
13,68:22
13,69:9
14,13:29
14,15:38
14,16:25
14,17:23
14,18:17
14,19:17
14,20:10
14,21:10
14,23:10
14,24:18
14,30:18
14,41:18
14,57:17
14,59:29
14,68:7
14,69:38
14,70:29
15,1:20
15,2:20
15,3:20
15,4:28
15,5:20
15,6:28
15,7:28
15,8:15
15,10:13
15,11:31
15,12:31
15,13:9
15,14:38
15,16:13
15,24:20
15,30:20
15,41:20
15,68:31
15,70:9
16,1:7
16,2:7
16,3:7
16,4:15
16,5:7
16,6:15
16,7:15
16,8:2
16,9:13
16,11:18
16,12:18
16,13:4
16,14:25
16,17:2
16,18:8
16,24:7
16,30:7
16,41:7
16,68:18
16,69:13
16,70:4
17,1:5
17,2:5
17,3:5
17,4:13
17,5:5
17,6:13
17,7:13
17,9:15
17,10:2
17,11:16
17,12:16
17,13:6
17,14:23
17,18:6
17,19:6
17,24:5
17,30:5
17,41:5
17,68:16
17,69:15
17,70:6
18,1:1
18,2:1
18,3:1
18,4:7
18,5:1
18,6:7
18,7:7
18,8:6
18,9:21
18,10:8
18,11:10
18,12:10
18,13:12
18,14:17
18,17:6
18,24:1
18,30:1
18,41:1
18,68:10
18,69:21
18,70:12
19,1:1
19,2:1
19,3:1
19,4:7
19,5:1
19,6:7
19,7:7
19,8:6
19,9:21
19,10:8
19,11:10
19,12:10
19,13:12
19,14:17
19,20:7
19,22:17
19,24:1
19,30:1
19,41:1
19,68:10
19,69:21
19,70:12
20,1:8
20,2:8
20,3:8
20,5:8
20,8:13
20,9:28
20,10:15
20,11:3
20,12:3
20,13:19
20,14:10
20,22:10
20,24:8
20,30:8
20,41:8
20,57:7
20,58:10
20,59:19
20,68:3
20,69:28
20,70:19
21,1:8
21,2:8
21,3:8
21,5:8
21,8:13
21,9:28
21,10:15
21,11:3
21,12:3
21,13:19
21,14:10
21,22:10
21,24:8
21,30:8
21,41:8
21,57:7
21,58:10
21,59:19
21,68:3
21,69:28
21,70:19
22,1:18
22,2:18
22,3:18
22,4:10
22,5:18
22,6:10
22,7:10
22,8:23
22,9:38
22,10:25
22,11:7
22,12:7
22,13:29
22,20:10
22,21:10
22,23:10
22,24:18
22,30:18
22,41:18
22,57:17
22,59:29
22,68:7
22,69:38
22,70:29
23,24:8
23,25:15
23,30:8
23,31:15
23,33:5
23,41:8
23,57:7
23,58:10
23,59:19
23,68:3
23,69:28
23,70:19
24,4:8
24,6:8
24,7:8
24,8:5
24,9:20
24,10:7
24,11:11
24,12:11
24,13:11
24,14:18
24,15:20
24,16:7
24,17:5
24,18:1
24,19:1
24,20:8
24,21:8
24,22:18
24,23:8
24,25:23
24,31:23
24,32:5
24,33:3
24,34:5
24,57:1
24,58:18
24,59:11
24,68:11
24,69:20
24,70:11
25,26:28
25,27:28
25,28:20
25,29:37
25,30:23
25,32:28
25,33:20
25,34:28
25,41:23
25,57:22
25,58:5
25,59:34
25,68:12
25,69:43
25,70:34
26,28:8
26,29:9
26,30:5
26,31:28
26,33:8
26,35:9
26,41:5
26,57:6
26,58:23
26,59:6
26,68:16
26,69:15
26,70:6
27,28:8
27,29:9
27,30:5
27,31:28
27,33:8
27,35:9
27,41:5
27,57:6
27,58:23
27,59:6
27,68:16
27,69:15
27,70:6
28,26:8
28,27:8
28,29:17
28,30:3
28,31:20
28,32:8
28,34:8
28,35:17
28,41:3
28,57:2
28,58:15
28,59:14
28,68:8
28,69:23
28,70:14
29,26:9
29,27:9
29,28:17
29,30:14
29,31:37
29,32:9
29,33:17
29,34:9
29,41:14
29,57:15
29,58:32
29,59:3
29,68:25
29,69:6
29,70:3
30,4:8
30,6:8
30,7:8
30,8:5
30,9:20
30,10:7
30,11:11
30,12:11
30,13:11
30,14:18
30,15:20
30,16:7
30,17:5
30,18:1
30,19:1
30,20:8
30,21:8
30,22:18
30,23:8
30,25:23
30,26:5
30,27:5
30,28:3
30,29:14
30,31:23
30,33:3
30,34:5
30,57:1
30,58:18
30,59:11
30,68:11
30,69:20
30,70:11
31,24:23
31,26:28
31,27:28
31,28:20
31,29:37
31,32:28
31,33:20
31,34:28
31,41:23
31,57:22
31,58:5
31,59:34
31,68:12
31,69:43
31,70:34
32,24:5
32,25:28
32,28:8
32,29:9
32,33:8
32,35:9
32,41:5
32,57:6
32,58:23
32,59:6
32,68:16
32,69:15
32,70:6
33,24:3
33,25:20
33,26:8
33,27:8
33,29:17
33,30:3
33,31:20
33,32:8
33,34:8
33,41:3
33,57:2
33,58:15
33,59:14
33,68:8
33,69:23
33,70:14
34,24:5
34,25:28
34,28:8
34,29:9
34,30:5
34,31:28
34,35:9
34,41:5
34,57:6
34,58:23
34,59:6
34,68:16
34,69:15
34,70:6
35,36:10
35,41:14
35,48:37
35,53:37
35,56:19
35,57:15
35,58:32
35,59:3
35,60:10
35,61:10
35,68:25
35,69:6
35,70:3
36,41:4
36,44:10
36,45:10
36,46:27
36,47:9
36,48:27
36,49:15
36,51:10
36,52:30
36,53:27
36,54:15
36,55:10
36,56:9
36,57:5
36,58:22
36,59:7
36,62:10
36,63:30
36,64:9
36,65:10
36,66:10
36,68:15
36,69:16
36,70:7
37,38:10
37,41:4
37,44:10
37,45:10
37,46:27
37,47:9
37,48:27
37,49:15
37,51:10
37,52:30
37,53:27
37,54:15
37,55:10
37,56:9
37,57:5
37,58:22
37,59:7
37,62:10
37,63:30
37,64:9
37,65:10
37,66:10
37,68:15
37,69:16
37,70:7
38,41:14
38,46:37
38,47:19
38,48:37
38,49:5
38,52:40
38,53:37
38,54:5
38,56:19
38,57:15
38,58:32
38,59:3
38,60:10
38,61:10
38,63:40
38,64:19
38,67:10
38,68:25
38,69:6
38,70:3
39,41:14
39,46:37
39,47:19
39,48:37
39,49:5
39,52:40
39,53:37
39,54:5
39,56:19
39,57:15
39,58:32
39,59:3
39,60:10
39,61:10
39,63:40
39,64:19
39,67:10
39,68:25
39,69:6
39,70:3
40,41:14
40,46:37
40,47:19
40,48:37
40,49:5
40,52:40
40,53:37
40,54:5
40,56:19
40,57:15
40,58:32
40,59:3
40,60:10
40,61:10
40,63:40
40,64:19
40,67:10
40,68:25
40,69:6
40,70:3
41,4:8
41,6:8
41,7:8
41,8:5
41,9:20
41,10:7
41,11:11
41,12:11
41,13:11
41,14:18
41,15:20
41,16:7
41,17:5
41,18:1
41,19:1
41,20:8
41,21:8
41,22:18
41,23:8
41,25:23
41,26:5
41,27:5
41,28:3
41,29:14
41,31:23
41,32:5
41,33:3
41,34:5
41,35:14
41,36:4
41,37:4
41,38:14
41,39:14
41,40:14
41,42:14
41,44:14
41,45:14
41,46:23
41,47:5
41,48:23
41,49:19
41,51:14
41,52:26
41,53:23
41,54:19
41,55:14
41,56:5
41,57:1
41,58:18
41,59:11
41,60:4
41,61:4
41,62:14
41,63:26
41,64:5
41,65:14
41,66:14
41,67:4
41,68:11
41,69:20
41,70:11
42,46:37
42,47:19
42,48:37
42,49:5
42,52:40
42,53:37
42,54:5
42,56:19
42,57:15
42,58:32
42,59:3
42,60:10
42,61:10
42,63:40
42,64:19
42,67:10
42,68:25
42,69:6
42,70:3
43,46:37
43,47:19
43,48:37
43,49:5
43,52:40
43,53:37
43,54:5
43,56:19
43,57:15
43,58:32
43,59:3
43,60:10
43,61:10
43,63:40
43,64:19
43,67:10
43,68:25
43,69:6
43,70:3
44,36:10
44,37:10
44,41:14
44,48:37
44,49:5
44,52:40
44,53:37
44,54:5
44,56:19
44,57:15
44,58:32
44,59:3
44,60:10
44,61:10
44,63:40
44,64:19
44,67:10
44,68:25
44,69:6
44,70:3
45,36:10
45,37:10
45,41:14
45,46:37
45,48:37
45,49:5
45,52:40
45,53:37
45,54:5
45,56:19
45,57:15
45,58:32
45,59:3
45,60:10
45,61:10
45,63:40
45,64:19
45,67:10
45,68:25
45,69:6
45,70:3
46,36:27
46,37:27
46,38:37
46,39:37
46,40:37
46,41:23
46,42:37
46,43:37
46,47:18
46,49:42
46,51:37
46,52:3
46,54:42
46,55:37
46,56:18
46,57:22
46,58:5
46,59:34
46,60:27
46,61:27
46,62:37
46,63:3
46,64:18
46,65:37
46,66:37
46,67:27
46,68:12
46,69:43
46,70:34
47,36:9
47,37:9
47,38:19
47,39:19
47,40:19
47,41:5
47,42:19
47,43:19
47,48:18
47,49:24
47,50:19
47,51:19
47,52:21
47,53:18
47,54:24
47,55:19
47,57:4
47,58:13
47,59:16
47,60:9
47,61:9
47,62:19
47,63:21
47,65:19
47,66:19
47,67:9
47,68:6
47,69:25
47,70:16
48,36:27
48,37:27
48,38:37
48,39:37
48,40:37
48,41:23
48,42:37
48,43:37
48,44:37
48,45:37
48,47:18
48,49:42
48,51:37
48,52:3
48,54:42
48,55:37
48,56:18
48,57:22
48,58:5
48,59:34
48,60:27
48,61:27
48,62:37
48,63:3
48,64:18
48,65:37
48,66:37
48,67:27
48,68:12
48,69:43
48,70:34
49,36:15
49,37:15
49,38:5
49,39:5
49,40:5
49,41:19
49,42:5
49,43:5
49,44:5
49,45:5
49,46:42
49,47:24
49,50:5
49,51:5
49,52:45
49,53:42
49,55:5
49,56:24
49,57:20
49,58:37
49,59:8
49,60:15
49,61:15
49,62:5
49,63:45
49,64:24
49,65:5
49,66:5
49,67:15
49,68:30
49,69:1
49,70:8
50,52:40
50,53:37
50,54:5
50,56:19
50,57:15
50,58:32
50,59:3
50,60:10
50,61:10
50,63:40
50,64:19
50,67:10
50,68:25
50,69:6
50,70:3
51,36:10
51,37:10
51,41:14
51,46:37
51,47:19
51,48:37
51,49:5
51,52:40
51,53:37
51,56:19
51,57:15
51,58:32
51,59:3
51,60:10
51,61:10
51,63:40
51,64:19
51,67:10
51,68:25
51,69:6
51,70:3
52,36:30
52,37:30
52,38:40
52,39:40
52,40:40
52,41:26
52,42:40
52,43:40
52,44:40
52,45:40
52,46:3
52,47:21
52,48:3
52,49:45
52,50:40
52,53:3
52,54:45
52,56:21
52,57:25
52,58:8
52,59:37
52,60:30
52,61:30
52,62:40
52,64:21
52,65:40
52,66:40
52,67:30
52,68:15
52,69:46
52,70:37
53,36:27
53,37:27
53,38:37
53,39:37
53,40:37
53,41:23
53,42:37
53,43:37
53,44:37
53,45:37
53,47:18
53,49:42
53,50:37
53,51:37
53,52:3
53,54:42
53,56:18
53,57:22
53,58:5
53,59:34
53,60:27
53,61:27
53,62:37
53,63:3
53,64:18
53,65:37
53,66:37
53,67:27
53,68:12
53,69:43
53,70:34
54,36:15
54,37:15
54,38:5
54,39:5
54,40:5
54,41:19
54,42:5
54,43:5
54,44:5
54,45:5
54,46:42
54,47:24
54,48:42
54,50:5
54,55:5
54,56:24
54,57:20
54,58:37
54,59:8
54,60:15
54,61:15
54,62:5
54,63:45
54,64:24
54,65:5
54,66:5
54,67:15
54,68:30
54,69:1
54,70:8
55,36:10
55,37:10
55,41:14
55,46:37
55,47:19
55,48:37
55,49:5
55,56:19
55,57:15
55,58:32
55,59:3
55,60:10
55,61:10
55,63:40
55,64:19
55,67:10
55,68:25
55,69:6
55,70:3
56,36:9
56,37:9
56,38:19
56,39:19
56,40:19
56,41:5
56,42:19
56,43:19
56,44:19
56,45:19
56,46:18
56,48:18
56,49:24
56,50:19
56,51:19
56,52:21
56,53:18
56,54:24
56,55:19
56,57:4
56,58:13
56,59:16
56,60:9
56,61:9
56,62:19
56,63:21
56,65:19
56,66:19
56,67:9
56,68:6
56,69:25
56,70:16
57,1:1
57,2:1
57,3:1
57,4:7
57,5:1
57,6:7
57,7:7
57,8:6
57,9:21
57,10:8
57,11:10
57,12:10
57,13:12
57,14:17
57,20:7
57,21:7
57,22:17
57,23:7
57,24:1
57,25:22
57,26:6
57,27:6
57,28:2
57,29:15
57,30:1
57,31:22
57,32:6
57,33:2
57,34:6
57,35:15
57,36:5
57,37:5
57,38:15
57,39:15
57,40:15
57,41:1
57,42:15
57,43:15
57,44:15
57,45:15
57,46:22
57,47:4
57,48:22
57,49:20
57,50:15
57,51:15
57,52:25
57,53:22
57,54:20
57,55:15
57,56:4
57,58:17
57,61:5
57,62:15
57,63:25
57,64:4
57,65:15
57,66:15
57,67:5
57,68:10
57,69:21
57,70:12
58,1:18
58,2:18
58,3:18
58,4:10
58,5:18
58,6:10
58,7:10
58,8:23
58,9:38
58,10:25
58,11:7
58,12:7
58,13:29
58,20:10
58,21:10
58,23:10
58,24:18
58,25:5
58,26:23
58,27:23
58,28:15
58,29:32
58,30:18
58,31:5
58,32:23
58,33:15
58,34:23
58,35:32
58,36:22
58,37:22
58,38:32
58,39:32
58,40:32
58,41:18
58,42:32
58,43:32
58,44:32
58,45:32
58,46:5
58,47:13
58,48:5
58,49:37
58,50:32
58,51:32
58,52:8
58,53:5
58,54:37
58,55:32
58,56:13
58,59:29
58,61:22
58,62:32
58,63:8
58,64:13
58,65:32
58,66:32
58,67:22
58,68:7
58,69:38
58,70:29
59,1:11
59,2:11
59,3:11
59,4:19
59,5:11
59,6:19
59,7:19
59,8:6
59,9:9
59,10:4
59,11:22
59,12:22
59,14:29
59,20:19
59,21:19
59,22:29
59,23:19
59,24:11
59,25:34
59,26:6
59,27:6
59,28:14
59,29:3
59,30:11
59,31:34
59,32:6
59,33:14
59,34:6
59,35:3
59,36:7
59,37:7
59,38:3
59,39:3
59,40:3
59,41:11
59,42:3
59,43:3
59,44:3
59,45:3
59,46:34
59,47:16
59,48:34
59,49:8
59,50:3
59,51:3
59,52:37
59,53:34
59,54:8
59,55:3
59,56:16
59,60:7
59,61:7
59,62:3
59,63:37
59,64:16
59,65:3
59,66:3
59,67:7
59,68:22
59,69:9
60,38:10
60,39:10
60,40:10
60,41:4
60,42:10
60,43:10
60,44:10
60,45:10
60,46:27
60,47:9
60,48:27
60,49:15
60,50:10
60,51:10
60,52:30
60,53:27
60,54:15
60,55:10
60,56:9
60,62:10
60,63:30
60,64:9
60,65:10
60,66:10
60,68:15
60,69:16
60,70:7
61,38:10
61,39:10
61,40:10
61,41:4
61,42:10
61,43:10
61,44:10
61,45:10
61,46:27
61,47:9
61,48:27
61,49:15
61,50:10
61,51:10
61,52:30
61,53:27
61,54:15
61,55:10
61,56:9
61,57:5
61,58:22
61,59:7
61,62:10
61,63:30
61,64:9
61,65:10
61,66:10
61,68:15
61,69:16
61,70:7
62,36:10
62,37:10
62,41:14
62,46:37
62,47:19
62,48:37
62,49:5
62,52:40
62,53:37
62,54:5
62,56:19
62,57:15
62,58:32
62,59:3
62,60:10
62,61:10
62,63:40
62,68:25
62,69:6
62,70:3
63,36:30
63,37:30
63,38:40
63,39:40
63,40:40
63,41:26
63,42:40
63,43:40
63,44:40
63,45:40
63,46:3
63,47:21
63,48:3
63,49:45
63,50:40
63,51:40
63,53:3
63,54:45
63,55:40
63,56:21
63,57:25
63,58:8
63,59:37
63,60:30
63,61:30
63,64:21
63,68:15
63,69:46
63,70:37
64,36:9
64,37:9
64,38:19
64,39:19
64,40:19
64,41:5
64,42:19
64,43:19
64,44:19
64,45:19
64,46:18
64,48:18
64,49:24
64,50:19
64,51:19
64,52:21
64,53:18
64,54:24
64,55:19
64,57:4
64,58:13
64,59:16
64,60:9
64,61:9
64,65:19
64,66:19
64,67:9
64,68:6
64,69:25
64,70:16
65,36:10
65,37:10
65,41:14
65,46:37
65,47:19
65,48:37
65,49:5
65,52:40
65,53:37
65,54:5
65,56:19
65,57:15
65,58:32
65,59:3
65,60:10
65,67:10
65,68:25
65,69:6
65,70:3
66,36:10
66,37:10
66,41:14
66,46:37
66,47:19
66,48:37
66,49:5
66,52:40
66,53:37
66,54:5
66,56:19
66,57:15
66,58:32
66,59:3
66,60:10
66,61:10
66,67:10
66,68:25
66,69:6
66,70:3
67,38:10
67,39:10
67,40:10
67,41:4
67,42:10
67,43:10
67,44:10
67,45:10
67,46:27
67,47:9
67,48:27
67,49:15
67,50:10
67,51:10
67,52:30
67,53:27
67,54:15
67,55:10
67,56:9
67,57:5
67,58:22
67,59:7
67,65:10
67,66:10
67,68:15
67,69:16
67,70:7
68,4:3
68,5:11
68,6:3
68,7:3
68,8:16
68,9:31
68,10:18
68,13:22
68,14:7
68,15:31
68,16:18
68,17:16
68,18:10
68,19:10
68,20:3
68,21:3
68,22:7
68,23:3
68,24:11
68,25:12
68,26:16
68,27:16
68,28:8
68,29:25
68,30:11
68,31:12
68,32:16
68,33:8
68,34:16
68,35:25
68,36:15
68,37:15
68,38:25
68,39:25
68,40:25
68,41:11
68,42:25
68,43:25
68,44:25
68,45:25
68,46:12
68,47:6
68,48:12
68,49:30
68,50:25
68,51:25
68,52:15
68,53:12
68,54:30
68,55:25
68,56:6
68,57:10
68,58:7
68,59:22
68,60:15
68,61:15
68,62:25
68,63:15
68,64:6
68,65:25
68,66:25
68,67:15
68,69:31
68,70:22
69,2:20
69,3:20
69,4:28
69,5:20
69,6:28
69,7:28
69,8:15
69,10:13
69,11:31
69,12:31
69,13:9
69,14:38
69,16:13
69,17:15
69,18:21
69,19:21
69,20:28
69,21:28
69,22:38
69,23:28
69,24:20
69,25:43
69,26:15
69,27:15
69,28:23
69,29:6
69,30:20
69,31:43
69,32:15
69,33:23
69,34:15
69,35:6
69,36:16
69,37:16
69,38:6
69,39:6
69,40:6
69,41:20
69,42:6
69,43:6
69,44:6
69,45:6
69,46:43
69,47:25
69,48:43
69,49:1
69,50:6
69,51:6
69,52:46
69,53:43
69,54:1
69,55:6
69,56:25
69,57:21
69,58:38
69,59:9
69,60:16
69,61:16
69,62:6
69,63:46
69,64:25
69,65:6
69,66:6
69,67:16
69,68:31
69,70:9
70,2:11
70,3:11
70,4:19
70,5:11
70,6:19
70,7:19
70,8:6
70,9:9
70,10:4
70,11:22
70,12:22
70,14:29
70,15:9
70,16:4
70,17:6
70,18:12
70,19:12
70,20:19
70,21:19
70,22:29
70,23:19
70,24:11
70,25:34
70,26:6
70,27:6
70,28:14
70,29:3
70,30:11
70,31:34
70,32:6
70,33:14
70,34:6
70,35:3
70,36:7
70,37:7
70,38:3
70,39:3
70,40:3
70,41:11
70,42:3
70,43:3
70,44:3
70,45:3
70,46:34
70,47:16
70,48:34
70,49:8
70,50:3
70,51:3
70,52:37
70,53:34
70,54:8
70,55:3
70,56:16
70,57:12
70,58:29
70,60:7
70,61:7
70,62:3
70,63:37
70,64:16
70,65:3
70,66:3
70,67:7
70,68:22
70,69:9

<setup times backward>
1,11:11
1,18:1
1,19:1
1,20:8
1,21:8
1,22:18
1,57:1
1,58:18
2,11:11
2,18:1
2,19:1
2,20:8
2,21:8
2,22:18
2,57:1
2,58:18
3,11:11
3,18:1
3,19:1
3,20:8
3,21:8
3,22:18
3,57:1
3,58:18
4,11:3
4,22:10
4,58:10
4,68:3
5,4:8
5,7:8
5,11:11
5,18:1
5,19:1
5,20:8
5,21:8
5,22:18
5,57:1
5,58:18
5,68:11
6,11:3
6,22:10
6,58:10
6,68:3
7,11:3
7,22:10
7,58:10
7,68:3
8,1:5
8,2:5
8,3:5
8,4:13
8,5:5
8,6:13
8,7:13
8,11:16
8,18:6
8,19:6
8,20:13
8,21:13
8,22:23
8,24:5
8,30:5
8,41:5
8,57:6
8,58:23
8,68:16
9,1:20
9,2:20
9,3:20
9,4:28
9,5:20
9,6:28
9,7:28
9,8:15
9,16:13
9,17:15
9,18:21
9,19:21
9,20:28
9,21:28
9,22:38
9,24:20
9,30:20
9,41:20
9,57:21
9,58:38
9,59:9
9,68:31
9,70:9
10,1:7
10,2:7
10,3:7
10,4:15
10,5:7
10,6:15
10,7:15
10,8:2
10,17:2
10,18:8
10,19:8
10,20:15
10,21:15
10,22:25
10,24:7
10,30:7
10,41:7
10,57:8
10,58:25
10,68:18
11,22:7
11,58:7
12,22:7
12,58:7
13,1:11
13,2:11
13,3:11
13,4:19
13,5:11
13,6:19
13,7:19
13,8:6
13,10:4
13,11:22
13,12:22
13,14:29
13,16:4
13,17:6
13,18:12
13,19:12
13,20:19
13,21:19
13,22:29
13,24:11
13,30:11
13,41:11
13,57:12
13,58:29
13,68:22
15,1:20
15,2:20
15,3:20
15,4:28
15,5:20
15,6:28
15,7:28
15,8:15
15,10:13
15,11:31
15,12:31
15,13:9
15,14:38
15,24:20
15,30:20
15,41:20
15,68:31
15,70:9
16,1:7
16,2:7
16,3:7
16,4:15
16,5:7
16,6:15
16,7:15
16,8:2
16,11:18
16,12:18
16,14:25
16,24:7
16,30:7
16,41:7
16,68:18
17,1:5
17,2:5
17,3:5
17,4:13
17,5:5
17,6:13
17,7:13
17,11:16
17,12:16
17,14:23
17,18:6
17,24:5
17,30:5
17,41:5
17,68:16
18,4:7
18,6:7
18,7:7
18,11:10
18,12:10
18,14:17
18,68:10
19,4:7
19,6:7
19,7:7
19,11:10
19,12:10
19,14:17
19,68:10
20,11:3
20,12:3
20,14:10
20,22:10
20,58:10
20,68:3
21,11:3
21,12:3
21,14:10
21,22:10
21,58:10
21,68:3
23,11:3
23,12:3
23,14:10
23,22:10
23,58:10
23,68:3
24,4:8
24,6:8
24,7:8
24,11:11
24,12:11
24,14:18
24,18:1
24,19:1
24,20:8
24,21:8
24,22:18
24,23:8
24,31:23
24,33:3
24,57:1
24,58:18
24,68:11
26,1:5
26,2:5
26,3:5
26,4:13
26,5:5
26,6:13
26,7:13
26,11:16
26,12:16
26,14:23
26,18:6
26,19:6
26,20:13
26,21:13
26,22:23
26,23:13
26,24:5
26,25:28
26,28:8
26,30:5
26,31:28
26,33:8
26,41:5
26,57:6
26,58:23
26,68:16
27,1:5
27,2:5
27,3:5
27,4:13
27,5:5
27,6:13
27,7:13
27,11:16
27,12:16
27,14:23
27,18:6
27,19:6
27,20:13
27,21:13
27,22:23
27,23:13
27,24:5
27,25:28
27,28:8
27,30:5
27,31:28
27,33:8
27,41:5
27,57:6
27,58:23
27,68:16
28,4:5
28,6:5
28,7:5
28,11:8
28,12:8
28,14:15
28,20:5
28,21:5
28,22:15
28,23:5
28,25:20
28,31:20
28,58:15
28,68:8
29,1:14
29,2:14
29,3:14
29,4:22
29,5:14
29,6:22
29,7:22
29,8:9
29,10:7
29,11:25
29,12:25
29,13:3
29,14:32
29,16:7
29,17:9
29,18:15
29,19:15
29,20:22
29,21:22
29,22:32
29,23:22
29,24:14
29,25:37
29,26:9
29,27:9
29,28:17
29,30:14
29,31:37
29,32:9
29,33:17
29,34:9
29,41:14
29,57:15
29,58:32
29,59:3
29,68:25
29,70:3
30,4:8
30,6:8
30,7:8
30,11:11
30,12:11
30,14:18
30,18:1
30,19:1
30,20:8
30,21:8
30,22:18
30,23:8
30,25:23
30,28:3
30,33:3
30,57:1
30,58:18
30,68:11
32,1:5
32,2:5
32,3:5
32,4:13
32,5:5
32,6:13
32,7:13
32,11:16
32,12:16
32,14:23
32,18:6
32,19:6
32,20:13
32,21:13
32,22:23
32,23:13
32,24:5
32,25:28
32,28:8
32,30:5
32,31:28
32,33:8
32,41:5
32,57:6
32,58:23
32,68:16
33,4:5
33,6:5
33,7:5
33,11:8
33,12:8
33,14:15
33,20:5
33,21:5
33,22:15
33,23:5
33,25:20
33,31:20
33,58:15
33,68:8
34,1:5
34,2:5
34,3:5
34,4:13
34,5:5
34,6:13
34,7:13
34,11:16
34,12:16
34,14:23
34,18:6
34,19:6
34,20:13
34,21:13
34,22:23
34,23:13
34,24:5
34,25:28
34,28:8
34,30:5
34,31:28
34,33:8
34,41:5
34,57:6
34,58:23
34,68:16
35,1:14
35,2:14
35,3:14
35,4:22
35,5:14
35,6:22
35,7:22
35,8:9
35,10:7
35,11:25
35,12:25
35,13:3
35,14:32
35,16:7
35,17:9
35,18:15
35,19:15
35,20:22
35,21:22
35,22:32
35,23:22
35,24:14
35,25:37
35,26:9
35,27:9
35,28:17
35,30:14
35,31:37
35,32:9
35,33:17
35,34:9
35,41:14
35,57:15
35,58:32
35,59:3
35,68:25
35,70:3
36,1:4
36,2:4
36,3:4
36,4:12
36,5:4
36,6:12
36,7:12
36,11:15
36,12:15
36,14:22
36,18:5
36,19:5
36,20:12
36,21:12
36,22:22
36,23:12
36,24:4
36,25:27
36,28:7
36,30:4
36,31:27
36,33:7
36,41:4
36,46:27
36,47:9
36,48:27
36,52:30
36,53:27
36,56:9
36,57:5
36,58:22
36,63:30
36,64:9
36,68:15
37,1:4
37,2:4
37,3:4
37,4:12
37,5:4
37,6:12
37,7:12
37,11:15
37,12:15
37,14:22
37,18:5
37,19:5
37,20:12
37,21:12
37,22:22
37,23:12
37,24:4
37,25:27
37,28:7
37,30:4
37,31:27
37,33:7
37,41:4
37,46:27
37,47:9
37,48:27
37,52:30
37,53:27
37,56:9
37,57:5
37,58:22
37,63:30
37,64:9
37,68:15
38,1:14
38,2:14
38,3:14
38,4:22
38,5:14
38,6:22
38,7:22
38,8:9
38,10:7
38,11:25
38,12:25
38,13:3
38,14:32
38,16:7
38,17:9
38,18:15
38,19:15
38,20:22
38,21:22
38,22:32
38,23:22
38,24:14
38,25:37
38,26:9
38,27:9
38,28:17
38,30:14
38,31:37
38,32:9
38,33:17
38,34:9
38,36:10
38,37:10
38,41:14
38,46:37
38,47:19
38,48:37
38,52:40
38,53:37
38,56:19
38,57:15
38,58:32
38,59:3
38,60:10
38,61:10
38,63:40
38,64:19
38,67:10
38,68:25
38,70:3
39,1:14
39,2:14
39,3:14
39,4:22
39,5:14
39,6:22
39,7:22
39,8:9
39,10:7
39,11:25
39,12:25
39,13:3
39,14:32
39,16:7
39,17:9
39,18:15
39,19:15
39,20:22
39,21:22
39,22:32
39,23:22
39,24:14
39,25:37
39,26:9
39,27:9
39,28:17
39,30:14
39,31:37
39,32:9
39,33:17
39,34:9
39,36:10
39,37:10
39,41:14
39,46:37
39,47:19
39,48:37
39,52:40
39,53:37
39,56:19
39,57:15
39,58:32
39,59:3
39,60:10
39,61:10
39,63:40
39,64:19
39,67:10
39,68:25
39,70:3
40,1:14
40,2:14
40,3:14
40,4:22
40,5:14
40,6:22
40,7:22
40,8:9
40,10:7
40,11:25
40,12:25
40,13:3
40,14:32
40,16:7
40,17:9
40,18:15
40,19:15
40,20:22
40,21:22
40,22:32
40,23:22
40,24:14
40,25:37
40,26:9
40,27:9
40,28:17
40,30:14
40,31:37
40,32:9
40,33:17
40,34:9
40,36:10
40,37:10
40,41:14
40,46:37
40,47:19
40,48:37
40,52:40
40,53:37
40,56:19
40,57:15
40,58:32
40,59:3
40,60:10
40,61:10
40,63:40
40,64:19
40,67:10
40,68:25
40,70:3
41,4:8
41,6:8
41,7:8
41,11:11
41,12:11
41,14:18
41,18:1
41,19:1
41,20:8
41,21:8
41,22:18
41,23:8
41,25:23
41,28:3
41,31:23
41,33:3
41,46:23
41,47:5
41,48:23
41,52:26
41,53:23
41,56:5
41,57:1
41,58:18
41,63:26
41,64:5
41,68:11
42,1:14
42,2:14
42,3:14
42,4:22
42,5:14
42,6:22
42,7:22
42,8:9
42,10:7
42,11:25
42,12:25
42,13:3
42,14:32
42,16:7
42,17:9
42,18:15
42,19:15
42,20:22
42,21:22
42,22:32
42,23:22
42,24:14
42,25:37
42,26:9
42,27:9
42,28:17
42,30:14
42,31:37
42,32:9
42,33:17
42,34:9
42,36:10
42,37:10
42,41:14
42,46:37
42,47:19
42,48:37
42,52:40
42,53:37
42,56:19
42,57:15
42,58:32
42,59:3
42,60:10
42,61:10
42,63:40
42,64:19
42,67:10
42,68:25
42,70:3
43,1:14
43,2:14
43,3:14
43,4:22
43,5:14
43,6:22
43,7:22
43,8:9
43,10:7
43,11:25
43,12:25
43,13:3
43,14:32
43,16:7
43,17:9
43,18:15
43,19:15
43,20:22
43,21:22
43,22:32
43,23:22
43,24:14
43,25:37
43,26:9
43,27:9
43,28:17
43,30:14
43,31:37
43,32:9
43,33:17
43,34:9
43,36:10
43,37:10
43,41:14
43,46:37
43,47:19
43,48:37
43,52:40
43,53:37
43,56:19
43,57:15
43,58:32
43,59:3
43,60:10
43,61:10
43,63:40
43,64:19
43,67:10
43,68:25
43,70:3
44,1:14
44,2:14
44,3:14
44,4:22
44,5:14
44,6:22
44,7:22
44,8:9
44,10:7
44,11:25
44,12:25
44,13:3
44,14:32
44,16:7
44,17:9
44,18:15
44,19:15
44,20:22
44,21:22
44,22:32
44,23:22
44,24:14
44,25:37
44,26:9
44,27:9
44,28:17
44,30:14
44,31:37
44,32:9
44,33:17
44,34:9
44,36:10
44,37:10
44,41:14
44,48:37
44,52:40
44,53:37
44,56:19
44,57:15
44,58:32
44,59:3
44,60:10
44,61:10
44,63:40
44,64:19
44,67:10
44,68:25
44,70:3
45,1:14
45,2:14
45,3:14
45,4:22
45,5:14
45,6:22
45,7:22
45,8:9
45,10:7
45,11:25
45,12:25
45,13:3
45,14:32
45,16:7
45,17:9
45,18:15
45,19:15
45,20:22
45,21:22
45,22:32
45,23:22
45,24:14
45,25:37
45,26:9
45,27:9
45,28:17
45,30:14
45,31:37
45,32:9
45,33:17
45,34:9
45,36:10
45,37:10
45,41:14
45,48:37
45,52:40
45,53:37
45,56:19
45,57:15
45,58:32
45,59:3
45,60:10
45,61:10
45,63:40
45,64:19
45,67:10
45,68:25
45,70:3
46,52:3
46,63:3
47,4:3
47,6:3
47,7:3
47,11:6
47,12:6
47,14:13
47,20:3
47,21:3
47,22:13
47,23:3
47,25:18
47,31:18
47,46:18
47,48:18
47,52:21
47,53:18
47,58:13
47,63:21
47,68:6
48,52:3
48,63:3
49,1:19
49,2:19
49,3:19
49,4:27
49,5:19
49,6:27
49,7:27
49,8:14
49,10:12
49,11:30
49,12:30
49,13:8
49,14:37
49,16:12
49,17:14
49,18:20
49,19:20
49,20:27
49,21:27
49,22:37
49,23:27
49,24:19
49,25:42
49,26:14
49,27:14
49,28:22
49,29:5
49,30:19
49,31:42
49,32:14
49,33:22
49,34:14
49,35:5
49,36:15
49,37:15
49,38:5
49,39:5
49,40:5
49,41:19
49,42:5
49,43:5
49,44:5
49,45:5
49,46:42
49,47:24
49,48:42
49,51:5
49,52:45
49,53:42
49,55:5
49,56:24
49,57:20
49,58:37
49,59:8
49,60:15
49,61:15
49,62:5
49,63:45
49,64:24
49,65:5
49,66:5
49,67:15
49,68:30
49,70:8
50,1:14
50,2:14
50,3:14
50,4:22
50,5:14
50,6:22
50,7:22
50,8:9
50,10:7
50,11:25
50,12:25
50,13:3
50,14:32
50,16:7
50,17:9
50,18:15
50,19:15
50,20:22
50,21:22
50,22:32
50,23:22
50,24:14
50,25:37
50,26:9
50,27:9
50,28:17
50,30:14
50,31:37
50,32:9
50,33:17
50,34:9
50,36:10
50,37:10
50,41:14
50,46:37
50,47:19
50,48:37
50,52:40
50,53:37
50,56:19
50,57:15
50,58:32
50,59:3
50,60:10
50,61:10
50,63:40
50,64:19
50,67:10
50,68:25
50,70:3
51,1:14
51,2:14
51,3:14
51,4:22
51,5:14
51,6:22
51,7:22
51,8:9
51,10:7
51,11:25
51,12:25
51,13:3
51,14:32
51,16:7
51,17:9
51,18:15
51,19:15
51,20:22
51,21:22
51,22:32
51,23:22
51,24:14
51,25:37
51,26:9
51,27:9
51,28:17
51,30:14
51,31:37
51,32:9
51,33:17
51,34:9
51,36:10
51,37:10
51,41:14
51,46:37
51,47:19
51,48:37
51,53:37
51,56:19
51,57:15
51,58:32
51,59:3
51,60:10
51,61:10
51,63:40
51,64:19
51,67:10
51,68:25
51,70:3
53,52:3
53,63:3
54,1:19
54,2:19
54,3:19
54,4:27
54,5:19
54,6:27
54,7:27
54,8:14
54,10:12
54,11:30
54,12:30
54,13:8
54,14:37
54,16:12
54,17:14
54,18:20
54,19:20
54,20:27
54,21:27
54,22:37
54,23:27
54,24:19
54,25:42
54,26:14
54,27:14
54,28:22
54,29:5
54,30:19
54,31:42
54,32:14
54,33:22
54,34:14
54,35:5
54,36:15
54,37:15
54,38:5
54,39:5
54,40:5
54,41:19
54,42:5
54,43:5
54,44:5
54,45:5
54,46:42
54,47:24
54,48:42
54,50:5
54,51:5
54,52:45
54,53:42
54,56:24
54,57:20
54,58:37
54,59:8
54,60:15
54,61:15
54,62:5
54,63:45
54,64:24
54,65:5
54,66:5
54,67:15
54,68:30
54,70:8
55,1:14
55,2:14
55,3:14
55,4:22
55,5:14
55,6:22
55,7:22
55,8:9
55,10:7
55,11:25
55,12:25
55,13:3
55,14:32
55,16:7
55,17:9
55,18:15
55,19:15
55,20:22
55,21:22
55,22:32
55,23:22
55,24:14
55,25:37
55,26:9
55,27:9
55,28:17
55,30:14
55,31:37
55,32:9
55,33:17
55,34:9
55,36:10
55,37:10
55,41:14
55,46:37
55,47:19
55,48:37
55,52:40
55,53:37
55,56:19
55,57:15
55,58:32
55,59:3
55,60:10
55,61:10
55,63:40
55,64:19
55,67:10
55,68:25
55,70:3
56,4:3
56,6:3
56,7:3
56,11:6
56,12:6
56,14:13
56,20:3
56,21:3
56,22:13
56,23:3
56,25:18
56,31:18
56,46:18
56,48:18
56,52:21
56,53:18
56,58:13
56,63:21
56,68:6
57,4:7
57,6:7
57,7:7
57,11:10
57,12:10
57,14:17
57,20:7
57,21:7
57,22:17
57,23:7
57,25:22
57,28:2
57,31:22
57,33:2
57,46:22
57,47:4
57,48:22
57,52:25
57,53:22
57,56:4
57,63:25
57,64:4
57,68:10
58,25:5
58,31:5
58,46:5
58,48:5
58,52:8
58,53:5
58,63:8
59,1:11
59,2:11
59,3:11
59,4:19
59,5:11
59,6:19
59,7:19
59,8:6
59,10:4
59,11:22
59,12:22
59,14:29
59,16:4
59,17:6
59,18:12
59,19:12
59,20:19
59,21:19
59,22:29
59,23:19
59,24:11
59,25:34
59,26:6
59,27:6
59,28:14
59,30:11
59,31:34
59,32:6
59,33:14
59,34:6
59,36:7
59,37:7
59,41:11
59,46:34
59,47:16
59,48:34
59,52:37
59,53:34
59,56:16
59,57:12
59,58:29
59,61:7
59,63:37
59,64:16
59,67:7
59,68:22
60,1:4
60,2:4
60,3:4
60,4:12
60,5:4
60,6:12
60,7:12
60,11:15
60,12:15
60,14:22
60,18:5
60,19:5
60,20:12
60,21:12
60,22:22
60,23:12
60,24:4
60,25:27
60,28:7
60,30:4
60,31:27
60,33:7
60,41:4
60,46:27
60,47:9
60,48:27
60,52:30
60,53:27
60,56:9
60,57:5
60,58:22
60,63:30
60,64:9
60,68:15
61,1:4
61,2:4
61,3:4
61,4:12
61,5:4
61,6:12
61,7:12
61,11:15
61,12:15
61,14:22
61,18:5
61,19:5
61,20:12
61,21:12
61,22:22
61,23:12
61,24:4
61,25:27
61,28:7
61,30:4
61,31:27
61,33:7
61,41:4
61,46:27
61,47:9
61,48:27
61,52:30
61,53:27
61,56:9
61,57:5
61,58:22
61,63:30
61,64:9
61,68:15
62,1:14
62,2:14
62,3:14
62,4:22
62,5:14
62,6:22
62,7:22
62,8:9
62,10:7
62,11:25
62,12:25
62,13:3
62,14:32
62,16:7
62,17:9
62,18:15
62,19:15
62,20:22
62,21:22
62,22:32
62,23:22
62,24:14
62,25:37
62,26:9
62,27:9
62,28:17
62,30:14
62,31:37
62,32:9
62,33:17
62,34:9
62,36:10
62,37:10
62,41:14
62,46:37
62,47:19
62,48:37
62,52:40
62,53:37
62,56:19
62,57:15
62,58:32
62,59:3
62,60:10
62,61:10
62,68:25
62,70:3
64,4:3
64,6:3
64,7:3
64,11:6
64,12:6
64,14:13
64,20:3
64,21:3
64,22:13
64,23:3
64,25:18
64,31:18
64,46:18
64,48:18
64,52:21
64,53:18
64,58:13
64,63:21
64,68:6
65,1:14
65,2:14
65,3:14
65,4:22
65,5:14
65,6:22
65,7:22
65,8:9
65,10:7
65,11:25
65,12:25
65,13:3
65,14:32
65,16:7
65,17:9
65,18:15
65,19:15
65,20:22
65,21:22
65,22:32
65,23:22
65,24:14
65,25:37
65,26:9
65,27:9
65,28:17
65,30:14
65,31:37
65,32:9
65,33:17
65,34:9
65,36:10
65,37:10
65,41:14
65,46:37
65,47:19
65,48:37
65,52:40
65,53:37
65,56:19
65,57:15
65,58:32
65,59:3
65,60:10
65,61:10
65,63:40
65,64:19
65,67:10
65,68:25
65,70:3
66,1:14
66,2:14
66,3:14
66,4:22
66,5:14
66,6:22
66,7:22
66,8:9
66,10:7
66,11:25
66,12:25
66,13:3
66,14:32
66,16:7
66,17:9
66,18:15
66,19:15
66,20:22
66,21:22
66,22:32
66,23:22
66,24:14
66,25:37
66,26:9
66,27:9
66,28:17
66,30:14
66,31:37
66,32:9
66,33:17
66,34:9
66,36:10
66,37:10
66,41:14
66,46:37
66,47:19
66,48:37
66,52:40
66,53:37
66,56:19
66,57:15
66,58:32
66,59:3
66,60:10
66,61:10
66,63:40
66,64:19
66,67:10
66,68:25
66,70:3
67,1:4
67,2:4
67,3:4
67,4:12
67,5:4
67,6:12
67,7:12
67,11:15
67,12:15
67,14:22
67,18:5
67,19:5
67,20:12
67,21:12
67,22:22
67,23:12
67,24:4
67,25:27
67,28:7
67,30:4
67,31:27
67,33:7
67,41:4
67,46:27
67,47:9
67,48:27
67,52:30
67,53:27
67,56:9
67,57:5
67,58:22
67,63:30
67,64:9
67,68:15
68,14:7
68,22:7
68,25:12
68,31:12
68,46:12
68,48:12
68,52:15
68,53:12
68,58:7
68,63:15
69,1:20
69,2:20
69,3:20
69,4:28
69,5:20
69,6:28
69,7:28
69,8:15
69,10:13
69,11:31
69,12:31
69,13:9
69,14:38
69,16:13
69,17:15
69,18:21
69,19:21
69,20:28
69,21:28
69,22:38
69,23:28
69,24:20
69,25:43
69,26:15
69,27:15
69,28:23
69,29:6
69,30:20
69,31:43
69,32:15
69,33:23
69,34:15
69,35:6
69,36:16
69,37:16
69,38:6
69,39:6
69,40:6
69,41:20
69,42:6
69,43:6
69,44:6
69,45:6
69,46:43
69,47:25
69,48:43
69,49:1
69,50:6
69,51:6
69,52:46
69,53:43
69,54:1
69,55:6
69,56:25
69,57:21
69,58:38
69,59:9
69,60:16
69,61:16
69,62:6
69,63:46
69,64:25
69,65:6
69,66:6
69,67:16
69,68:31
69,70:9
70,1:11
70,2:11
70,3:11
70,4:19
70,5:11
70,6:19
70,7:19
70,8:6
70,10:4
70,11:22
70,12:22
70,14:29
70,16:4
70,17:6
70,18:12
70,19:12
70,20:19
70,21:19
70,22:29
70,23:19
70,24:11
70,25:34
70,26:6
70,27:6
70,28:14
70,30:11
70,31:34
70,32:6
70,33:14
70,34:6
70,36:7
70,37:7
70,41:11
70,46:34
70,47:16
70,48:34
70,52:37
70,53:34
70,56:16
70,57:12
70,58:29
70,60:7
70,61:7
70,63:37
70,64:16
70,67:7
70,68:22

<end>

<optimal SALBP-1 value>
20


<rand seed>
467321153

